Minimize
	value: tt

Subject to
tt + 2000 s_1_1 > 0
tt - t_1_1 - 2000.000000 s_1_1 > -1995.093000
tt + 2000 s_2_1 > 0
tt - t_2_1 - 2000.000000 s_2_1 > -1995.893100
tt + 2000 s_1_2 > 0
tt - t_1_2 - 2000.000000 s_1_2 > -1996.283200
tt + 2000 s_2_2 > 0
tt - t_2_2 - 2000.000000 s_2_2 > -1998.295300
tt + 2000 s_1_3 > 0
tt - t_1_3 - 2000.000000 s_1_3 > -1995.059900
tt + 2000 s_2_3 > 0
tt - t_2_3 - 2000.000000 s_2_3 > -1996.602100
tt + 2000 s_1_4 > 0
tt - t_1_4 - 2000.000000 s_1_4 > -1992.047500
tt + 2000 s_2_4 > 0
tt - t_2_4 - 2000.000000 s_2_4 > -1991.989300
tt + 2000 s_1_5 > 0
tt - t_1_5 - 2050.909876 s_1_5 + 50.909876 s_1_2 > -1999.700556
tt + 2000 s_2_5 > 0
tt - t_2_5 - 2101.819752 s_2_5 + 101.819752 s_2_2 > -1998.852600
s_1_1 + s_2_1  = 1
s_1_2 + s_2_2  = 1
s_1_3 + s_2_3  = 1
s_1_4 + s_2_4  = 1
s_1_5 + s_2_5  = 1
t_1_1 - t_1_2 + 2000.000000 u_1_1_2 > 3.716800
t_1_2 - t_1_1 - 2000.000000 u_1_1_2 > -1995.093000
t_2_1 - t_2_2 + 2000.000000 u_2_1_2 > 1.704700
t_2_2 - t_2_1 - 2000.000000 u_2_1_2 > -1995.893100
t_1_1 - t_1_3 + 2000.000000 u_1_1_3 > 4.940100
t_1_3 - t_1_1 - 2000.000000 u_1_1_3 > -1995.093000
t_2_1 - t_2_3 + 2000.000000 u_2_1_3 > 3.397900
t_2_3 - t_2_1 - 2000.000000 u_2_1_3 > -1995.893100
t_1_1 - t_1_4 + 2000.000000 u_1_1_4 > 7.952500
t_1_4 - t_1_1 - 2000.000000 u_1_1_4 > -1995.093000
t_2_1 - t_2_4 + 2000.000000 u_2_1_4 > 8.010700
t_2_4 - t_2_1 - 2000.000000 u_2_1_4 > -1995.893100
t_1_5 - t_1_1 - 2000.000000 s_1_1 > -1991.138267
t_1_5 - t_2_1 - 2000.000000 s_2_1 > -1987.983633
t_2_5 - t_1_1 - 2000.000000 s_1_1 > -1991.138267
t_2_5 - t_2_1 - 2000.000000 s_2_1 > -1987.983633
t_1_2 - t_1_1 + 2000.000000 u_1_2_1 > 4.907000
t_1_1 - t_1_2 - 2000.000000 u_1_2_1 > -1996.283200
t_2_2 - t_2_1 + 2000.000000 u_2_2_1 > 4.106900
t_2_1 - t_2_2 - 2000.000000 u_2_2_1 > -1998.295300
t_1_2 - t_1_3 + 2000.000000 u_1_2_3 > 4.940100
t_1_3 - t_1_2 - 2000.000000 u_1_2_3 > -1996.283200
t_2_2 - t_2_3 + 2000.000000 u_2_2_3 > 3.397900
t_2_3 - t_2_2 - 2000.000000 u_2_2_3 > -1998.295300
t_1_2 - t_1_4 + 2000.000000 u_1_2_4 > 7.952500
t_1_4 - t_1_2 - 2000.000000 u_1_2_4 > -1996.283200
t_2_2 - t_2_4 + 2000.000000 u_2_2_4 > 8.010700
t_2_4 - t_2_2 - 2000.000000 u_2_2_4 > -1998.295300
t_1_5 - t_1_2 - 2000.000000 s_1_2 > -1992.328467
t_1_5 - t_2_2 - 2000.000000 s_2_2 > -1990.385833
t_2_5 - t_1_2 - 2000.000000 s_1_2 > -1992.328467
t_2_5 - t_2_2 - 2000.000000 s_2_2 > -1990.385833
t_1_3 - t_1_1 + 2000.000000 u_1_3_1 > 4.907000
t_1_1 - t_1_3 - 2000.000000 u_1_3_1 > -1995.059900
t_2_3 - t_2_1 + 2000.000000 u_2_3_1 > 4.106900
t_2_1 - t_2_3 - 2000.000000 u_2_3_1 > -1996.602100
t_1_3 - t_1_2 + 2000.000000 u_1_3_2 > 3.716800
t_1_2 - t_1_3 - 2000.000000 u_1_3_2 > -1995.059900
t_2_3 - t_2_2 + 2000.000000 u_2_3_2 > 1.704700
t_2_2 - t_2_3 - 2000.000000 u_2_3_2 > -1996.602100
t_1_3 - t_1_4 + 2000.000000 u_1_3_4 > 7.952500
t_1_4 - t_1_3 - 2000.000000 u_1_3_4 > -1995.059900
t_2_3 - t_2_4 + 2000.000000 u_2_3_4 > 8.010700
t_2_4 - t_2_3 - 2000.000000 u_2_3_4 > -1996.602100
t_1_5 - t_1_3 - 2000.000000 s_1_3 > -1991.105167
t_1_5 - t_2_3 - 2000.000000 s_2_3 > -1988.692633
t_2_5 - t_1_3 - 2000.000000 s_1_3 > -1991.105167
t_2_5 - t_2_3 - 2000.000000 s_2_3 > -1988.692633
t_1_4 - t_1_1 + 2000.000000 u_1_4_1 > 4.907000
t_1_1 - t_1_4 - 2000.000000 u_1_4_1 > -1992.047500
t_2_4 - t_2_1 + 2000.000000 u_2_4_1 > 4.106900
t_2_1 - t_2_4 - 2000.000000 u_2_4_1 > -1991.989300
t_1_4 - t_1_2 + 2000.000000 u_1_4_2 > 3.716800
t_1_2 - t_1_4 - 2000.000000 u_1_4_2 > -1992.047500
t_2_4 - t_2_2 + 2000.000000 u_2_4_2 > 1.704700
t_2_2 - t_2_4 - 2000.000000 u_2_4_2 > -1991.989300
t_1_4 - t_1_3 + 2000.000000 u_1_4_3 > 4.940100
t_1_3 - t_1_4 - 2000.000000 u_1_4_3 > -1992.047500
t_2_4 - t_2_3 + 2000.000000 u_2_4_3 > 3.397900
t_2_3 - t_2_4 - 2000.000000 u_2_4_3 > -1991.989300
t_1_5 - t_1_4 - 2000.000000 s_1_4 > -1988.092767
t_1_5 - t_2_4 - 2000.000000 s_2_4 > -1984.079833
t_2_5 - t_1_4 - 2000.000000 s_1_4 > -1988.092767
t_2_5 - t_2_4 - 2000.000000 s_2_4 > -1984.079833
t_1_5 - t_1_1 - 2000.000000 s_1_1 > -1991.138267
t_1_5 - t_2_1 - 2000.000000 s_2_1 > -1987.983633
t_2_5 - t_1_1 - 2000.000000 s_1_1 > -1991.138267
t_2_5 - t_2_1 - 2000.000000 s_2_1 > -1987.983633
t_1_5 - t_1_2 - 2000.000000 s_1_2 > -1992.328467
t_1_5 - t_2_2 - 2000.000000 s_2_2 > -1990.385833
t_2_5 - t_1_2 - 2000.000000 s_1_2 > -1992.328467
t_2_5 - t_2_2 - 2000.000000 s_2_2 > -1990.385833
t_1_5 - t_1_3 - 2000.000000 s_1_3 > -1991.105167
t_1_5 - t_2_3 - 2000.000000 s_2_3 > -1988.692633
t_2_5 - t_1_3 - 2000.000000 s_1_3 > -1991.105167
t_2_5 - t_2_3 - 2000.000000 s_2_3 > -1988.692633
t_1_5 - t_1_4 - 2000.000000 s_1_4 > -1988.092767
t_1_5 - t_2_4 - 2000.000000 s_2_4 > -1984.079833
t_2_5 - t_1_4 - 2000.000000 s_1_4 > -1988.092767
t_2_5 - t_2_4 - 2000.000000 s_2_4 > -1984.079833
Binary
s_1_1
s_2_1
s_1_2
s_2_2
s_1_3
s_2_3
s_1_4
s_2_4
s_1_5
s_2_5
u_1_1_2
u_2_1_2
u_1_1_3
u_2_1_3
u_1_1_4
u_2_1_4
u_1_2_1
u_2_2_1
u_1_2_3
u_2_2_3
u_1_2_4
u_2_2_4
u_1_3_1
u_2_3_1
u_1_3_2
u_2_3_2
u_1_3_4
u_2_3_4
u_1_4_1
u_2_4_1
u_1_4_2
u_2_4_2
u_1_4_3
u_2_4_3

End
